% demand
num_movements = 27;
loading_factor = [1200, 900, 1900, 1000, 1850, 950, 1150, 1050, 1150, 1100, 1600, 1500, 800, 1750, 950, 1800, 900, 800, 900, 1300, 850, 1150, 1550, 800, 1750, 1900, 1400];
pickup_time = [0, 0, 0, 0, 0, 1, 1, 1, 1, 1, 1, 2, 4, 4, 4, 4, 4, 5, 6, 6, 8, 8, 8, 8, 8, 9, 9];
delivery_time = [1, 1, 1, 1, 1, 2, 2, 4, 3, 3, 2, 3, 8, 6, 6, 6, 6, 9, 7, 8, 9, 10, 9, 10, 10, 10, 10];

% transporter definition
total_capacity = 7000;
num_decks = 3;
capacity = [3000, 1000, 3000];

% ways out of decks
num_ways_out = 1;
paths_out = array3d(decks, ways_out, decks, [
% ways out of deck d1
2, 3, 0, 

% ways out of deck d2
3, 0, 0, 

% ways out of deck d3
0, 0, 0,	

]);

